(set-logic HORN)

(declare-fun inv-f
             (Int
              Int
              Int
              Int
              Int
              Int
              Int
              Int
              Int
              Int
              Int
              Int
              Int
              Int
              Int
              Int
              Int)
             Bool)
(assert (forall ((A Int)
         (B Int)
         (C Int)
         (D Int)
         (E Int)
         (F Int)
         (G Int)
         (H Int)
         (I Int)
         (J Int)
         (K Int)
         (L Int)
         (M Int)
         (N Int)
         (O Int)
         (P Int)
         (Q Int))
  (let ((a!1 (and (inv-f Q P O N M L K J I H G F E D C B A)
                     (= (- Q K) 0)
                     (= (- P I) 0)
                     (= (- O G) 0)
                     (= (- N F) 0)
                     (= (- M E) 0)
                     (< (- 99 B) 0)
                     (= (- L B) 0)
                     (not (= (+ (- 100) B) 0)))))
       (=> a!1 false))
    ))
(assert (forall ((A Int)
         (B Int)
         (C Int)
         (D Int)
         (E Int)
         (F Int)
         (G Int)
         (H Int)
         (I Int)
         (J Int)
         (K Int)
         (L Int)
         (M Int)
         (N Int)
         (O Int)
         (P Int)
         (Q Int))
  (=> (and (= (- Q K) 0)
              (= (- P J) 0)
              (= (- O G) 0)
              (= (- N F) 0)
              (= (- M E) 0)
              (= (- L C) 0)
              (= K 0)
              (= (+ (- 3) J) 0)
              (= (+ (- 6) G) 0)
              (= (+ (- 9) F) 0)
              (= (+ (- 1) E) 0)
              (= C 0))
         (inv-f Q P O N M L K J I H G F E D C B A))
    ))
(assert (forall ((A Int)
         (B Int)
         (C Int)
         (D Int)
         (E Int)
         (F Int)
         (G Int)
         (H Int)
         (I Int)
         (J Int)
         (K Int)
         (L Int)
         (M Int)
         (N Int)
         (O Int)
         (P Int)
         (Q Int)
         (R Int)
         (S Int)
         (T Int)
         (U Int)
         (V Int)
         (W Int)
         (X Int)
         (Y Int)
         (Z Int)
         (A1 Int)
         (B1 Int)
         (C1 Int)
         (D1 Int)
         (E1 Int)
         (F1 Int)
         (G1 Int)
         (H1 Int))
  (let ((a!1 (and (= (- P X) 0) (= (- H S) 0))))
     (let ((a!2 (and a!1
                     (>= (- 99 H) 0)
                     (= (+ (- (- 1) H) G) 0)
                     (= (+ (- 702) O) 0)
                     (= (- O W) 0)
                     (= (- G D) 0)
                     (= (- Y R) 0)
                     (= (- H1 R) 0)
                     (= (- V N) 0)
                     (= (- L N) 0)
                     (= (- U M) 0)
                     (= (- F M) 0)
                     (= (- T K) 0)
                     (= (- E K) 0))))
     (let ((a!3 (or (and a!1
                         (= (- P W) 0)
                         (= (- H D) 0)
                         (= (- Y H1) 0)
                         (= (- X W) 0)
                         (= (- V L) 0)
                         (= (- U F) 0)
                         (= (- T E) 0))
                    a!2)))
       (=> (and (inv-f Y X V U T S R Q P O N M K J I H G) a!3)
           (inv-f H1 W L F E D C B A G1 F1 E1 D1 C1 B1 A1 Z)))))
    ))


(check-sat)
(exit)
